NAME: tsp15_5
COMMENT: 15-tsp problem (Padberg/Rinaldi)
TYPE: TSP
DIMENSION: 15
EDGE_WEIGHT_TYPE : EUC_2D
NODE_COORD_SECTION
1.00 15.59 35.83
2.00 6.22 4.97
3.00 10.41 37.25
4.00 10.87 37.99
5.00 14.48 2.86
6.00 32.78 22.62
7.00 34.77 35.71
8.00 11.15 13.72
9.00 37.56 2.69
10.00 6.46 24.07
11.00 39.63 5.37
12.00 19.84 32.75
13.00 14.54 11.29
14.00 27.37 36.44
15.00 38.59 13.75
